 vasp.5.3.3 18Dez12 (build Nov 12 2013 15:25:08) complex
 executed on           CrayXC_GNU date 2014.12.03  11:42:13

 INCAR:
 POTCAR:    PAW_PBE S 06Sep2000
 POTCAR:    PAW_PBE Cu_pv 06Sep2000
 POTCAR:    PAW_PBE Zn 06Sep2000
 POTCAR:    PAW_PBE Sn_d 06Sep2000

 POTCAR:    PAW_PBE S 06Sep2000
   VRHFIN =S : s2p4

   TITEL  = PAW_PBE S 06Sep2000
   POMASS =   32.066; ZVAL   =    6.000    mass and valenz
   ENMAX  =  258.689; ENMIN  =  194.016 eV

 POTCAR:    PAW_PBE Cu_pv 06Sep2000
   VRHFIN =Cu: d10 p1

   TITEL  = PAW_PBE Cu_pv 06Sep2000
   POMASS =   63.546; ZVAL   =   17.000    mass and valenz
   ENMAX  =  368.648; ENMIN  =  276.486 eV

 POTCAR:    PAW_PBE Zn 06Sep2000
   VRHFIN =Zn: d10 p2

   TITEL  = PAW_PBE Zn 06Sep2000
   POMASS =   65.390; ZVAL   =   12.000    mass and valenz
   ENMAX  =  276.723; ENMIN  =  207.542 eV

 POTCAR:    PAW_PBE Sn_d 06Sep2000
   VRHFIN =Sn: s2p2

   TITEL  = PAW_PBE Sn_d 06Sep2000
   POMASS =  118.710; ZVAL   =   14.000    mass and valenz
   ENMAX  =  241.083; ENMIN  =  180.812 eV

 Optimization of the real space projectors (new method)

 maximal supplied QI-value         = 19.84
 optimisation between [QCUT,QGAM] = [ 11.91, 24.01] = [ 39.69,161.42] Ry
 Optimized for a Real-space Cutoff    1.21 Angstroem

   l    n(q)    QCUT    max X(q) W(low)/X(q) W(high)/X(q)  e(spline)
   0      9    11.905   187.594    0.97E-04    0.12E-03    0.68E-07
   0      9    11.905   164.243    0.96E-04    0.12E-03    0.68E-07
   1      8    11.905    67.533    0.16E-03    0.92E-04    0.85E-07
   1      8    11.905    50.729    0.16E-03    0.91E-04    0.82E-07
 Optimization of the real space projectors (new method)

[...]

   l    n(q)    QCUT    max X(q) W(low)/X(q) W(high)/X(q)  e(spline)
   2      9    11.864    46.356    0.22E-03    0.13E-03    0.20E-06
   2      9    11.864    41.843    0.22E-03    0.14E-03    0.21E-06
   0     10    11.864    48.958    0.15E-03    0.24E-04    0.29E-06
   0     10    11.864    32.776    0.14E-03    0.22E-04    0.27E-06
   1     10    11.864    17.787    0.96E-04    0.25E-03    0.18E-06
   1     10    11.864    14.435    0.84E-04    0.22E-03    0.17E-06
 Optimization of the real space projectors (new method)

 maximal supplied QI-value         = 15.12
 optimisation between [QCUT,QGAM] = [ 11.94, 23.89] = [ 39.94,159.77] Ry
 Optimized for a Real-space Cutoff    1.41 Angstroem

   l    n(q)    QCUT    max X(q) W(low)/X(q) W(high)/X(q)  e(spline)
   2      9    11.943     5.880    0.64E-04    0.29E-05    0.11E-06
   2      9    11.943     7.804    0.16E-03    0.49E-04    0.17E-06
   0     10    11.943    20.557    0.63E-04    0.33E-04    0.47E-07
   0     10    11.943     9.400    0.78E-04    0.42E-04    0.59E-07
   1     10    11.943    94.178    0.54E-04    0.37E-04    0.13E-06
   1     10    11.943    56.401    0.52E-04    0.35E-04    0.13E-06
  PAW_PBE S 06Sep2000                   :
  PAW_PBE Cu_pv 06Sep2000               :
  PAW_PBE Zn 06Sep2000                  :
  PAW_PBE Sn_d 06Sep2000                :

 POSCAR: primitive_CONTCAR
  positions in direct lattice
 exchange correlation table for  LEXCH =        8
   RHO(1)=    0.500       N(1)  =     2000
   RHO(2)=  100.500       N(2)  =     4000

 ion  position               nearest neighbor table
   1  0.379  0.127  0.878-  37 2.32  39 2.33  49 2.35  57 2.41
   2  0.129  0.377  0.378-  34 2.32  44 2.33  54 2.35  58 2.41
   3  0.121  0.373  0.878-  41 2.32  35 2.33  49 2.35  61 2.41
   4  0.371  0.123  0.378-  34 2.32  36 2.33  52 2.35  60 2.41
   5  0.127  0.121  0.122-  33 2.32  36 2.33  49 2.35  58 2.41
   6  0.377  0.371  0.622-  34 2.32  39 2.33  56 2.35  61 2.41
   7  0.373  0.379  0.122-  45 2.32  44 2.33  49 2.35  60 2.41
   8  0.123  0.129  0.622-  34 2.32  35 2.33  50 2.35  57 2.41
   9  0.879  0.127  0.878-  33 2.32  35 2.33  51 2.35  59 2.41
  10  0.629  0.377  0.378-  38 2.32  48 2.33  56 2.35  60 2.41
  11  0.621  0.373  0.878-  45 2.32  39 2.33  51 2.35  63 2.41
  12  0.871  0.123  0.378-  38 2.32  40 2.33  50 2.35  58 2.41
  13  0.627  0.121  0.122-  37 2.32  40 2.33  51 2.35  60 2.41
  14  0.877  0.371  0.622-  38 2.32  35 2.33  54 2.35  63 2.41
  15  0.873  0.379  0.122-  41 2.32  48 2.33  51 2.35  58 2.41
  16  0.623  0.129  0.622-  38 2.32  39 2.33  52 2.35  59 2.41
  17  0.379  0.627  0.878-  45 2.32  47 2.33  53 2.35  61 2.41
  18  0.129  0.877  0.378-  42 2.32  36 2.33  50 2.35  62 2.41
  19  0.121  0.873  0.878-  33 2.32  43 2.33  53 2.35  57 2.41
  20  0.371  0.623  0.378-  42 2.32  44 2.33  56 2.35  64 2.41
  21  0.127  0.621  0.122-  41 2.32  44 2.33  53 2.35  62 2.41
  22  0.377  0.871  0.622-  42 2.32  47 2.33  52 2.35  57 2.41
  23  0.373  0.879  0.122-  37 2.32  36 2.33  53 2.35  64 2.41
  24  0.123  0.629  0.622-  42 2.32  43 2.33  54 2.35  61 2.41
  25  0.879  0.627  0.878-  41 2.32  43 2.33  55 2.35  63 2.41
  26  0.629  0.877  0.378-  46 2.32  40 2.33  52 2.35  64 2.41
  27  0.621  0.873  0.878-  37 2.32  47 2.33  55 2.35  59 2.41
  28  0.871  0.623  0.378-  46 2.32  48 2.33  54 2.35  62 2.41
  29  0.627  0.621  0.122-  45 2.32  48 2.33  55 2.35  64 2.41
  30  0.877  0.871  0.622-  46 2.32  43 2.33  50 2.35  59 2.41
  31  0.873  0.879  0.122-  33 2.32  40 2.33  55 2.35  62 2.41
  32  0.623  0.629  0.622-  46 2.32  47 2.33  56 2.35  63 2.41
  33  0.000  0.000  0.000-   9 2.32  19 2.32  31 2.32   5 2.32
  34  0.250  0.250  0.500-   6 2.32   8 2.32   2 2.32   4 2.32
  35  0.000  0.250  0.750-   8 2.33   9 2.33  14 2.33   3 2.33
  36  0.250  0.000  0.250-   4 2.33  18 2.33  23 2.33   5 2.33
  37  0.500  0.000  0.000-   1 2.32  27 2.32  23 2.32  13 2.32
  38  0.750  0.250  0.500-  14 2.32  16 2.32  10 2.32  12 2.32
  39  0.500  0.250  0.750-   1 2.33   6 2.33  11 2.33  16 2.33
  40  0.750  0.000  0.250-  12 2.33  26 2.33  31 2.33  13 2.33
  41  0.000  0.500  0.000-  25 2.32   3 2.32  21 2.32  15 2.32
  42  0.250  0.750  0.500-  22 2.32  24 2.32  18 2.32  20 2.32
  43  0.000  0.750  0.750-  24 2.33  25 2.33  30 2.33  19 2.33
  44  0.250  0.500  0.250-   2 2.33  20 2.33   7 2.33  21 2.33
  45  0.500  0.500  0.000-  11 2.32  17 2.32   7 2.32  29 2.32
  46  0.750  0.750  0.500-  30 2.32  32 2.32  26 2.32  28 2.32
  47  0.500  0.750  0.750-  17 2.33  22 2.33  27 2.33  32 2.33
  48  0.750  0.500  0.250-  10 2.33  28 2.33  15 2.33  29 2.33
  49  0.250  0.250  0.000-   3 2.35   1 2.35   5 2.35   7 2.35
  50  0.000  0.000  0.500-   8 2.35  30 2.35  18 2.35  12 2.35
  51  0.750  0.250  0.000-   9 2.35  11 2.35  13 2.35  15 2.35
  52  0.500  0.000  0.500-  16 2.35  22 2.35   4 2.35  26 2.35
  53  0.250  0.750  0.000-  19 2.35  17 2.35  21 2.35  23 2.35
  54  0.000  0.500  0.500-  14 2.35  24 2.35   2 2.35  28 2.35
  55  0.750  0.750  0.000-  25 2.35  27 2.35  29 2.35  31 2.35
  56  0.500  0.500  0.500-   6 2.35  32 2.35  20 2.35  10 2.35
  57  0.250  0.000  0.750-  19 2.41   8 2.41   1 2.41  22 2.41
  58  0.000  0.250  0.250-   5 2.41   2 2.41  12 2.41  15 2.41
  59  0.750  0.000  0.750-   9 2.41  16 2.41  27 2.41  30 2.41
  60  0.500  0.250  0.250-  13 2.41  10 2.41   4 2.41   7 2.41
  61  0.250  0.500  0.750-   3 2.41   6 2.41  17 2.41  24 2.41
  62  0.000  0.750  0.250-  18 2.41  28 2.41  21 2.41  31 2.41
  63  0.750  0.500  0.750-  11 2.41  14 2.41  25 2.41  32 2.41
  64  0.500  0.750  0.250-  20 2.41  26 2.41  23 2.41  29 2.41

  LATTYP: Found a simple tetragonal cell.
 ALAT       =    10.8753995895
 C/A-ratio  =     0.9982805555

  Lattice vectors:

 A1 = (  10.8753995895,   0.0000000000,   0.0000000000)
 A2 = (   0.0000000000,  10.8753995895,   0.0000000000)
 A3 = (   0.0000000000,   0.0000000000,  10.8566999435)

Analysis of symmetry for initial positions (statically):
 Subroutine PRICEL returns following result:

  LATTYP: Found a body centered tetragonal cell.
 ALAT       =     5.4376997948
 C/A-ratio  =     1.9965611110

[...]

   8 primitive cells build up your supercell.

 Routine SETGRP: Setting up the symmetry group for a
 simple tetragonal supercell.

 Subroutine GETGRP returns: Found  4 space group operations
 (whereof  4 operations were pure point group operations)
 out of a pool of 16 trial point group operations.

The static configuration has the point symmetry S_4 .

Analysis of symmetry for dynamics (positions and initial velocities):
 Subroutine PRICEL returns following result:

  LATTYP: Found a body centered tetragonal cell.
 ALAT       =     5.4376997948
 C/A-ratio  =     1.9965611110

  Lattice vectors:

 A1 = (   2.7188498974,  -2.7188498974,   5.4283499718)
 A2 = (  -2.7188498974,   2.7188498974,   5.4283499717)
 A3 = (  -2.7188498974,  -2.7188498974,  -5.4283499718)

   8 primitive cells build up your supercell.

 Routine SETGRP: Setting up the symmetry group for a
 simple tetragonal supercell.

 Subroutine GETGRP returns: Found  4 space group operations
 (whereof  4 operations were pure point group operations)
 out of a pool of 16 trial point group operations.

The dynamic configuration has the point symmetry S_4 .

 irot  :   1
 isymop:   1   0   0
           0   1   0
           0   0   1

 gtrans:    -0.0000000    -0.0000000     0.0000000

 ptrans:     0.0000000     0.0000000     0.0000000
 rotmap:
 (   1->   1)  (   2->   2)  (   3->   3)  (   4->   4)  (   5->   5)
 (   6->   6)  (   7->   7)  (   8->   8)  (   9->   9)  (  10->  10)
 (  11->  11)  (  12->  12)  (  13->  13)  (  14->  14)  (  15->  15)
 (  16->  16)  (  17->  17)  (  18->  18)  (  19->  19)  (  20->  20)
 (  21->  21)  (  22->  22)  (  23->  23)  (  24->  24)  (  25->  25)
 (  26->  26)  (  27->  27)  (  28->  28)  (  29->  29)  (  30->  30)
 (  31->  31)  (  32->  32)  (  33->  33)  (  34->  34)  (  35->  35)
 (  36->  36)  (  37->  37)  (  38->  38)  (  39->  39)  (  40->  40)
 (  41->  41)  (  42->  42)  (  43->  43)  (  44->  44)  (  45->  45)
 (  46->  46)  (  47->  47)  (  48->  48)  (  49->  49)  (  50->  50)
 (  51->  51)  (  52->  52)  (  53->  53)  (  54->  54)  (  55->  55)
 (  56->  56)  (  57->  57)  (  58->  58)  (  59->  59)  (  60->  60)
 (  61->  61)  (  62->  62)  (  63->  63)  (  64->  64)

[...]

 irot  :   4
 isymop:   0  -1   0
           1   0   0
           0   0  -1

 gtrans:    -0.0000000    -0.0000000     0.0000000

[...]

 ptrans:     0.5000000     0.0000000     0.0000000
 rotmap:
 (   1->   7)  (   2->   8)  (   3->   5)  (   4->   6)  (   5->   1)
 (   6->   2)  (   7->   3)  (   8->   4)  (   9->  23)  (  10->  24)
 (  11->  21)  (  12->  22)  (  13->  17)  (  14->  18)  (  15->  19)
 (  16->  20)  (  17->  15)  (  18->  16)  (  19->  13)  (  20->  14)
 (  21->   9)  (  22->  10)  (  23->  11)  (  24->  12)  (  25->  31)
 (  26->  32)  (  27->  29)  (  28->  30)  (  29->  25)  (  30->  26)
 (  31->  27)  (  32->  28)  (  33->  37)  (  34->  34)  (  35->  36)
 (  36->  39)  (  37->  45)  (  38->  42)  (  39->  44)  (  40->  47)
 (  41->  33)  (  42->  38)  (  43->  40)  (  44->  35)  (  45->  41)
 (  46->  46)  (  47->  48)  (  48->  43)  (  49->  49)  (  50->  52)
 (  51->  53)  (  52->  56)  (  53->  51)  (  54->  50)  (  55->  55)
 (  56->  54)  (  57->  60)  (  58->  57)  (  59->  64)  (  60->  61)
 (  61->  58)  (  62->  59)  (  63->  62)  (  64->  63)

 KPOINTS: Automatic mesh

Automatic generation of k-mesh.
[...]
  Hartree 13501.20361 13501.20361 13738.19754    -0.00002    -0.00000     0.00000
  E(xc)   -3007.82029 -3007.82029 -3007.82286    -0.00000     0.00000     0.00000
  Local   -5087.47733 -5087.47733 -5540.63391    -0.00023     0.00008     0.00006
  n-local  5301.76649  5301.90092  5303.76202    -0.89334    -0.63292    -1.28524
  augment  3644.30134  3644.30134  3641.58985     0.00238     0.00000     0.00000
  Kinetic  7290.33273  7290.36532  7290.28430    -1.35985    -0.98567    -1.90796
  Fock    -4694.40157 -4694.26744 -4691.60312     0.02244     0.01870     0.04832
  Total       0.03754     0.03754    -0.23423    -0.00000     0.00000     0.00000
  in kB       0.04684     0.04684    -0.29226    -0.00000     0.00000     0.00000

 VOLUME and BASIS-vectors are now :
  energy-cutoff  :      550.00
  volume of cell :     1284.07
      direct lattice vectors                 reciprocal lattice vectors
    10.875399590  0.000000000  0.000000000     0.091950644  0.000000000  0.000000000
     0.000000000 10.875399590  0.000000000     0.000000000  0.091950644  0.000000000
     0.000000000  0.000000000 10.856699944     0.000000000  0.000000000  0.092109021

  length of vectors
    10.875399590 10.875399590 10.856699944     0.091950644  0.091950644  0.092109021

 FORCES acting on ions:
    Electron-Ion                     Ewald-Force                    Non-Local-Force
   0.617E+02 -.788E+01 -.619E+01   -.593E+02 0.913E+01 0.747E+01   -.212E+01 -.114E+01 -.117E+01
   0.617E+02 -.788E+01 -.619E+01   -.593E+02 0.913E+01 0.748E+01   -.212E+01 -.114E+01 -.117E+01
   -.617E+02 0.788E+01 -.619E+01   0.593E+02 -.913E+01 0.747E+01   0.212E+01 0.114E+01 -.117E+01
   -.617E+02 0.788E+01 -.619E+01   0.593E+02 -.913E+01 0.748E+01   0.212E+01 0.114E+01 -.117E+01
   -.788E+01 -.617E+02 0.619E+01   0.913E+01 0.593E+02 -.747E+01   -.114E+01 0.212E+01 0.117E+01
   -.788E+01 -.617E+02 0.619E+01   0.913E+01 0.593E+02 -.747E+01   -.114E+01 0.212E+01 0.117E+01
   0.788E+01 0.617E+02 0.619E+01   -.913E+01 -.593E+02 -.747E+01   0.114E+01 -.212E+01 0.117E+01
   0.788E+01 0.617E+02 0.619E+01   -.913E+01 -.593E+02 -.747E+01   0.114E+01 -.212E+01 0.117E+01
   0.617E+02 -.788E+01 -.619E+01   -.593E+02 0.913E+01 0.747E+01   -.212E+01 -.114E+01 -.117E+01
   0.617E+02 -.788E+01 -.619E+01   -.593E+02 0.913E+01 0.748E+01   -.212E+01 -.114E+01 -.117E+01
   -.617E+02 0.788E+01 -.619E+01   0.593E+02 -.913E+01 0.747E+01   0.212E+01 0.114E+01 -.117E+01
   -.617E+02 0.788E+01 -.619E+01   0.593E+02 -.913E+01 0.748E+01   0.212E+01 0.114E+01 -.117E+01
   -.788E+01 -.617E+02 0.619E+01   0.913E+01 0.593E+02 -.747E+01   -.114E+01 0.212E+01 0.117E+01
   -.788E+01 -.617E+02 0.619E+01   0.913E+01 0.593E+02 -.747E+01   -.114E+01 0.212E+01 0.117E+01
   0.788E+01 0.617E+02 0.619E+01   -.913E+01 -.593E+02 -.747E+01   0.114E+01 -.212E+01 0.117E+01
   0.788E+01 0.617E+02 0.619E+01   -.913E+01 -.593E+02 -.747E+01   0.114E+01 -.212E+01 0.117E+01
   0.617E+02 -.788E+01 -.619E+01   -.593E+02 0.913E+01 0.747E+01   -.212E+01 -.114E+01 -.117E+01
   0.617E+02 -.788E+01 -.619E+01   -.593E+02 0.913E+01 0.748E+01   -.212E+01 -.114E+01 -.117E+01
   -.617E+02 0.788E+01 -.619E+01   0.593E+02 -.913E+01 0.747E+01   0.212E+01 0.114E+01 -.117E+01
   -.617E+02 0.788E+01 -.619E+01   0.593E+02 -.913E+01 0.748E+01   0.212E+01 0.114E+01 -.117E+01
   -.788E+01 -.617E+02 0.619E+01   0.913E+01 0.593E+02 -.747E+01   -.114E+01 0.212E+01 0.117E+01
   -.788E+01 -.617E+02 0.619E+01   0.913E+01 0.593E+02 -.747E+01   -.114E+01 0.212E+01 0.117E+01
   0.788E+01 0.617E+02 0.619E+01   -.913E+01 -.593E+02 -.747E+01   0.114E+01 -.212E+01 0.117E+01
   0.788E+01 0.617E+02 0.619E+01   -.913E+01 -.593E+02 -.747E+01   0.114E+01 -.212E+01 0.117E+01
   0.617E+02 -.788E+01 -.619E+01   -.593E+02 0.913E+01 0.747E+01   -.212E+01 -.114E+01 -.117E+01
   0.617E+02 -.788E+01 -.619E+01   -.593E+02 0.913E+01 0.748E+01   -.212E+01 -.114E+01 -.117E+01
   -.617E+02 0.788E+01 -.619E+01   0.593E+02 -.913E+01 0.747E+01   0.212E+01 0.114E+01 -.117E+01
   -.617E+02 0.788E+01 -.619E+01   0.593E+02 -.913E+01 0.748E+01   0.212E+01 0.114E+01 -.117E+01
   -.788E+01 -.617E+02 0.619E+01   0.913E+01 0.593E+02 -.747E+01   -.114E+01 0.212E+01 0.117E+01
   -.788E+01 -.617E+02 0.619E+01   0.913E+01 0.593E+02 -.747E+01   -.114E+01 0.212E+01 0.117E+01
   0.788E+01 0.617E+02 0.619E+01   -.913E+01 -.593E+02 -.747E+01   0.114E+01 -.212E+01 0.117E+01
   0.788E+01 0.617E+02 0.619E+01   -.913E+01 -.593E+02 -.747E+01   0.114E+01 -.212E+01 0.117E+01
   0.105E-05 0.250E-05 0.338E-05   0.839E-05 -.102E-04 -.478E-04   0.325E-18 0.119E-17 0.000E+00
   0.446E-05 0.822E-05 -.231E-04   -.101E-05 -.135E-05 0.418E-04   0.542E-18 0.163E-17 0.108E-18
   -.286E-06 -.488E-05 -.417E-05   -.110E-05 0.764E-05 -.549E-06   0.217E-18 -.976E-18 0.434E-18
   -.118E-04 -.272E-05 0.269E-04   -.100E-04 -.742E-06 -.750E-05   -.195E-17 -.108E-17 -.651E-18
   -.893E-05 -.376E-05 -.156E-05   0.130E-04 -.442E-06 -.366E-04   0.184E-17 0.168E-17 0.217E-18
   -.344E-05 -.524E-05 0.106E-05   0.139E-05 -.112E-05 0.435E-04   -.976E-18 0.379E-18 0.108E-18
   0.555E-05 -.705E-05 0.257E-04   0.351E-05 -.165E-05 -.121E-04   0.152E-17 -.651E-18 0.325E-18
   -.401E-05 0.229E-05 0.589E-05   -.760E-05 -.983E-06 -.931E-05   0.651E-18 0.108E-17 0.163E-17
   0.862E-05 0.613E-05 0.129E-04   -.136E-05 -.556E-05 -.590E-04   0.239E-17 0.163E-17 -.759E-18
   0.841E-05 0.220E-05 0.109E-04   -.124E-05 0.105E-05 0.400E-04   0.651E-18 0.125E-17 0.000E+00
   -.123E-04 0.699E-05 -.288E-04   -.863E-06 0.101E-04 0.126E-05   0.282E-17 -.651E-18 0.141E-17
   -.131E-04 -.193E-04 -.417E-04   -.756E-06 0.387E-05 0.407E-05   -.217E-18 -.152E-17 -.141E-17
   0.230E-05 0.581E-05 0.552E-05   0.327E-05 0.419E-05 -.478E-04   0.867E-18 0.434E-18 0.108E-18
   0.766E-05 -.211E-05 -.200E-04   0.116E-05 0.128E-05 0.418E-04   0.108E-17 0.379E-18 0.217E-18
   -.148E-04 0.181E-04 0.408E-04   0.375E-05 0.799E-06 -.103E-04   -.759E-18 0.000E+00 0.108E-18
   0.119E-04 0.678E-05 -.260E-04   0.169E-05 0.363E-05 0.226E-05   -.325E-18 0.542E-18 0.759E-18
   -.364E-05 0.536E-05 0.104E-04   0.669E-05 -.614E-05 -.347E-04   -.867E-18 -.108E-18 0.542E-18
   0.582E-06 -.106E-06 -.266E-05   -.790E-06 -.102E-05 0.307E-04   -.173E-17 0.542E-19 -.108E-18
   -.435E-05 -.259E-05 -.423E-05   0.909E-05 0.643E-06 -.428E-04   0.542E-18 -.217E-18 0.867E-18
   0.533E-06 -.244E-07 -.110E-04   0.100E-05 -.868E-06 0.295E-04   -.119E-17 0.271E-18 -.325E-18
   0.370E-05 0.394E-05 -.439E-05   -.898E-07 -.373E-05 -.266E-04   -.434E-18 0.136E-17 0.163E-18
   0.187E-07 -.126E-06 0.461E-05   -.941E-06 0.775E-06 0.318E-04   -.542E-18 -.152E-17 -.271E-18
   0.394E-05 -.318E-05 0.105E-04   0.232E-05 0.305E-05 -.347E-04   -.867E-18 0.103E-17 0.596E-18
   -.722E-06 0.221E-06 -.257E-05   0.852E-06 0.926E-06 0.307E-04   0.184E-17 0.108E-18 0.379E-18
   0.490E-05 -.116E-04 0.158E-04   -.309E-06 0.560E-05 -.151E-04   0.260E-17 0.694E-17 0.173E-17
   0.108E-04 0.683E-05 -.143E-04   -.776E-05 -.170E-07 0.959E-05   0.867E-18 -.130E-17 0.173E-17
   -.727E-05 0.986E-05 0.134E-04   0.290E-05 -.149E-05 -.635E-05   -.347E-17 -.434E-18 0.217E-17
   0.328E-05 0.470E-05 -.171E-05   -.562E-05 -.208E-06 0.110E-04   -.520E-17 0.564E-17 -.260E-17
   0.537E-05 -.558E-05 0.265E-05   -.117E-06 0.774E-05 -.166E-04   -.867E-18 -.434E-18 -.217E-17
   -.990E-05 -.648E-05 -.154E-04   -.667E-06 0.319E-05 0.811E-06   -.113E-16 0.651E-17 0.000E+00
   -.533E-05 0.221E-05 -.868E-06   0.309E-05 0.648E-06 -.778E-05   -.434E-17 -.651E-17 0.434E-18
   -.529E-05 -.368E-05 -.190E-05   0.148E-05 0.300E-05 0.224E-05   -.147E-16 0.000E+00 0.390E-17
   -.823E-04 -.758E-04 0.299E-03   -.516E-13 -.995E-13 -.639E-12   0.619E-14 0.167E-16 -.154E-14

 POSITION                                       TOTAL-FORCE (eV/Angst)
      4.12532      1.38510      9.53081        -0.000573     -0.000112      0.000319
      1.40647      4.10395      4.10246        -0.000573     -0.000112      0.000319
      1.31238      4.05260      9.53081         0.000573      0.000112      0.000319
      4.03123      1.33375      4.10246         0.000573      0.000112      0.000319
      1.38510      1.31238      1.32589        -0.000112      0.000573     -0.000319
      4.10395      4.03123      6.75424        -0.000112      0.000573     -0.000319
      4.05260      4.12532      1.32589         0.000112     -0.000573     -0.000319
      1.33375      1.40647      6.75424         0.000112     -0.000573     -0.000319
      9.56302      1.38510      9.53081        -0.000573     -0.000112      0.000319
      6.84417      4.10395      4.10246        -0.000573     -0.000112      0.000319
      6.75008      4.05260      9.53081         0.000573      0.000112      0.000319
      9.46893      1.33375      4.10246         0.000573      0.000112      0.000319
      6.82280      1.31238      1.32589        -0.000112      0.000573     -0.000319
      9.54165      4.03123      6.75424        -0.000112      0.000573     -0.000319
      9.49030      4.12532      1.32589         0.000112     -0.000573     -0.000319
      6.77145      1.40647      6.75424         0.000112     -0.000573     -0.000319
      4.12532      6.82280      9.53081        -0.000573     -0.000112      0.000319
      1.40647      9.54165      4.10246        -0.000573     -0.000112      0.000319
      1.31238      9.49030      9.53081         0.000573      0.000112      0.000319
      4.03123      6.77145      4.10246         0.000573      0.000112      0.000319
      1.38510      6.75008      1.32589        -0.000112      0.000573     -0.000319
      4.10395      9.46893      6.75424        -0.000112      0.000573     -0.000319
      4.05260      9.56302      1.32589         0.000112     -0.000573     -0.000319
      1.33375      6.84417      6.75424         0.000112     -0.000573     -0.000319
      9.56302      6.82280      9.53081        -0.000573     -0.000112      0.000319
      6.84417      9.54165      4.10246        -0.000573     -0.000112      0.000319
      6.75008      9.49030      9.53081         0.000573      0.000112      0.000319
      9.46893      6.77145      4.10246         0.000573      0.000112      0.000319
      6.82280      6.75008      1.32589        -0.000112      0.000573     -0.000319
      9.54165      9.46893      6.75424        -0.000112      0.000573     -0.000319
      9.49030      9.56302      1.32589         0.000112     -0.000573     -0.000319
      6.77145      6.84417      6.75424         0.000112     -0.000573     -0.000319
      0.00000     -0.00000      0.00000        -0.000000     -0.000000      0.000000
      2.71885      2.71885      5.42835        -0.000000     -0.000000      0.000000
     -0.00000      2.71885      8.14252         0.000000     -0.000000      0.000000
      2.71885     -0.00000      2.71417         0.000000     -0.000000      0.000000
      5.43770      0.00000      0.00000        -0.000000     -0.000000      0.000000
      8.15655      2.71885      5.42835        -0.000000     -0.000000      0.000000
      5.43770      2.71885      8.14252         0.000000     -0.000000      0.000000
      8.15655      0.00000      2.71417        -0.000000     -0.000000      0.000000
     -0.00000      5.43770      0.00000        -0.000000     -0.000000      0.000000
      2.71885      8.15655      5.42835        -0.000000     -0.000000      0.000000
      0.00000      8.15655      8.14252        -0.000000     -0.000000      0.000000
      2.71885      5.43770      2.71417        -0.000000     -0.000000      0.000000
      5.43770      5.43770      0.00000        -0.000000     -0.000000      0.000000
      8.15655      8.15655      5.42835         0.000000     -0.000000      0.000000
      5.43770      8.15655      8.14252         0.000000     -0.000000      0.000000
      8.15655      5.43770      2.71417         0.000000     -0.000000      0.000000
      2.71885      2.71885      0.00000         0.000000     -0.000000      0.000000
     -0.00000     -0.00000      5.42835         0.000000     -0.000000      0.000000
      8.15655      2.71885      0.00000         0.000000     -0.000000      0.000000
      5.43770     -0.00000      5.42835         0.000000     -0.000000      0.000000
      2.71885      8.15655      0.00000         0.000000     -0.000000      0.000000
      0.00000      5.43770      5.42835         0.000000     -0.000000      0.000000
      8.15655      8.15655      0.00000         0.000000     -0.000000      0.000000
      5.43770      5.43770      5.42835        -0.000000     -0.000000      0.000000
      2.71885     -0.00000      8.14252         0.000000     -0.000000      0.000000
     -0.00000      2.71885      2.71417        -0.000000     -0.000000      0.000000
      8.15655     -0.00000      8.14252         0.000000     -0.000000      0.000000
      5.43770      2.71885      2.71417         0.000000     -0.000000      0.000000
      2.71885      5.43770      8.14252         0.000000     -0.000000      0.000000
      0.00000      8.15655      2.71417         0.000000     -0.000000      0.000000
      8.15655      5.43770      8.14252         0.000000     -0.000000      0.000000
      5.43770      8.15655      2.71417         0.000000     -0.000000      0.000000
    total drift:                               -0.000082     -0.000076      0.000299

  FREE ENERGIE OF THE ION-ELECTRON SYSTEM (eV)
  free  energy   TOTEN  =      -308.82805797 eV

  energy  without entropy=     -308.82805797  energy(sigma->0) =     -308.82805797

 d Force = 0.3536080E-05[ 0.194E-05, 0.514E-05]  d Energy = 0.3401628E-05 0.134E-06
 d Force = 0.1940548E+00[ 0.194E+00, 0.194E+00]  d Ewald  = 0.1940548E+00-0.354E-09

 Quasi-Newton relaxation of ions (Broydens 2nd method)
  g(Force)  = 0.683E-06   g(Stress)=-0.000E+00

 retain information from N=  2 steps
 eigenvalues of (default step * inverse Hessian matrix)
  average eigenvalue of G=   2.3474
 eigenvalue spectrum of G is  1.9210  2.7739

 reached required accuracy - stopping structural energy minimisation
 writing wavefunctions

 total charge

# of ion     s       p       d       tot
  1        1.318   2.415   0.000   3.733
  2        1.318   2.415   0.000   3.733
  3        1.318   2.414   0.000   3.732
  4        1.318   2.414   0.000   3.732
  5        1.318   2.415   0.000   3.733
  6        1.318   2.415   0.000   3.733
  7        1.318   2.415   0.000   3.734
  8        1.318   2.415   0.000   3.734
  9        1.318   2.415   0.000   3.733
 10        1.318   2.415   0.000   3.733
 11        1.318   2.414   0.000   3.732
 12        1.318   2.414   0.000   3.732
 13        1.318   2.415   0.000   3.733
 14        1.318   2.415   0.000   3.733
 15        1.318   2.415   0.000   3.734
 16        1.318   2.415   0.000   3.734
 17        1.318   2.415   0.000   3.733
 18        1.318   2.415   0.000   3.733
 19        1.318   2.414   0.000   3.732
 20        1.318   2.414   0.000   3.732
 21        1.318   2.415   0.000   3.733
 22        1.318   2.415   0.000   3.733
 23        1.318   2.415   0.000   3.734
 24        1.318   2.415   0.000   3.734
 25        1.318   2.415   0.000   3.733
 26        1.318   2.415   0.000   3.733
 27        1.318   2.414   0.000   3.732
 28        1.318   2.414   0.000   3.732
 29        1.318   2.415   0.000   3.733
 30        1.318   2.415   0.000   3.733
 31        1.318   2.415   0.000   3.734
 32        1.318   2.415   0.000   3.734
 33        0.205   6.161   9.072  15.438
 34        0.205   6.161   9.072  15.438
 35        0.203   6.158   9.073  15.435
 36        0.203   6.158   9.073  15.435
 37        0.205   6.161   9.072  15.438
 38        0.205   6.161   9.072  15.438
 39        0.203   6.158   9.073  15.435
 40        0.203   6.158   9.073  15.435
 41        0.205   6.161   9.072  15.438
 42        0.205   6.161   9.072  15.438
 43        0.203   6.158   9.073  15.435
 44        0.203   6.158   9.073  15.435
 45        0.205   6.161   9.072  15.438
 46        0.205   6.161   9.072  15.438
 47        0.203   6.158   9.073  15.435
 48        0.203   6.158   9.073  15.435
 49        0.489   0.460   9.836  10.785
 50        0.489   0.460   9.836  10.785
 51        0.489   0.460   9.836  10.785
 52        0.489   0.460   9.836  10.785
 53        0.489   0.460   9.836  10.785
 54        0.489   0.460   9.836  10.785
 55        0.489   0.460   9.836  10.785
 56        0.489   0.460   9.836  10.785
 57        1.082   1.155  10.127  12.364
 58        1.082   1.155  10.127  12.364
 59        1.082   1.155  10.127  12.364
 60        1.082   1.155  10.127  12.364
 61        1.082   1.155  10.127  12.364
 62        1.082   1.155  10.127  12.364
 63        1.082   1.155  10.127  12.364
 64        1.082   1.155  10.127  12.364
tot       58.030 188.731 304.865 551.627